100
32
13
27
29
21
21
9
4
15
7
11
5
2
11
7
2
9
17
3
1
1
18
1
17
1
2
2
3
3
1
18
1
1
4
1
1
2
2
5
4
22
4
17
1
17
3
5
7
1
1
1
1
1
3
1
3
1
2
2
5
1
2
1
1
1
1
1
1
17
3
19
3
1
8
2
1
1
5
1
2
17
1
1
2
1
1
1
18
1
5
1
4
1
1
2
2
1
6
1
3
1